45
1000
200	2
199	3
198	2
197	4
196	2
194	4
193	7
192	4
191	3
189	5
188	2
187	1
185	1
184	4
183	3
182	3
181	5
180	3
179	2
178	2
177	1
175	1
174	4
173	3
172	3
171	3
170	4
169	2
168	2
167	1
166	3
165	1
164	3
162	4
161	2
159	2
158	2
157	3
156	1
155	2
154	3
153	2
152	1
151	1
150	4
